T=23;
V=9;
graph=[{2,4},{1,3,5},{2,6},{1,5,7},{2,4,6,8},{3,5,9},{4,8},{5,7,9},{6,8}];
A=8;
start=[7,3,1,6,4,9,2,8];
end=[1,2,3,4,5,6,7,8];
distances=[|0,1,2,1,2,3,2,3,4
|1,0,1,2,1,2,3,2,3
|2,1,0,3,2,1,4,3,2
|1,2,3,0,1,2,1,2,3
|2,1,2,1,0,1,2,1,2
|3,2,1,2,1,0,3,2,1
|2,3,4,1,2,3,0,1,2
|3,2,3,2,1,2,1,0,1
|4,3,2,3,2,1,2,1,0|];
